








































































































24 53 18 12 64 40 63 13 56 
10 76 49 2 8 7 70 36 
33 35 54 57 31 44 38 16 66 
67 22 60 68 5 43 19 1 
6 71 4 3 45 25 29 46 
26 27 75 62 65 0 
32 72 74 37 39 21 55 28 59 
17 52 
58 41 20 61 47 23 50 73 
15 69 34 11 14 48 51 9 30 42 
